NAME: I19570-n25-k5
COMMENT : (Fake et al, No of trucks: 5, Optimal value: )
TYPE : CVRP
DIMENSION : 25
EDGE_WEIGHT_TYPE : EUC_2D
CAPACITY : 25
NODE_COORD_SECTION
1 578 785
2 566 898
3 43 172
4 49 110
5 922 691
6 305 313
7 600 180
8 495 661
9 504 359
10 522 648
11 964 961
12 398 960
13 614 999
14 683 707
15 676 520
16 763 872
17 241 833
18 349 763
19 855 156
20 407 383
21 152 962
22 258 471
23 902 952
24 874 909
25 580 400
DEMAND_SECTION
1 0
2 6
3 8
4 5
5 4
6 4
7 4
8 6
9 3
10 7
11 4
12 8
13 5
14 6
15 5
16 4
17 6
18 7
19 4
20 6
21 6
22 2
23 2
24 1
25 1
DEPOT_SECTION
 1
 -1
 EOF 